p cnf 90 1180
1 2 3 4 5 6 7 8 9 0
10 11 12 13 14 15 16 17 18 0
19 20 21 22 23 24 25 26 27 0
28 29 30 31 32 33 34 35 36 0
37 38 39 40 41 42 43 44 45 0
46 47 48 49 50 51 52 53 54 0
55 56 57 58 59 60 61 62 63 0
64 65 66 67 68 69 70 71 72 0
73 74 75 76 77 78 79 80 81 0
82 83 84 85 86 87 88 89 90 0
-1 -2 0
-1 -3 0
-1 -4 0
-1 -5 0
-1 -6 0
-1 -7 0
-1 -8 0
-1 -9 0
-2 -3 0
-2 -4 0
-2 -5 0
-2 -6 0
-2 -7 0
-2 -8 0
-2 -9 0
-3 -4 0
-3 -5 0
-3 -6 0
-3 -7 0
-3 -8 0
-3 -9 0
-4 -5 0
-4 -6 0
-4 -7 0
-4 -8 0
-4 -9 0
-5 -6 0
-5 -7 0
-5 -8 0
-5 -9 0
-6 -7 0
-6 -8 0
-6 -9 0
-7 -8 0
-7 -9 0
-8 -9 0
-10 -11 0
-10 -12 0
-10 -13 0
-10 -14 0
-10 -15 0
-10 -16 0
-10 -17 0
-10 -18 0
-11 -12 0
-11 -13 0
-11 -14 0
-11 -15 0
-11 -16 0
-11 -17 0
-11 -18 0
-12 -13 0
-12 -14 0
-12 -15 0
-12 -16 0
-12 -17 0
-12 -18 0
-13 -14 0
-13 -15 0
-13 -16 0
-13 -17 0
-13 -18 0
-14 -15 0
-14 -16 0
-14 -17 0
-14 -18 0
-15 -16 0
-15 -17 0
-15 -18 0
-16 -17 0
-16 -18 0
-17 -18 0
-19 -20 0
-19 -21 0
-19 -22 0
-19 -23 0
-19 -24 0
-19 -25 0
-19 -26 0
-19 -27 0
-20 -21 0
-20 -22 0
-20 -23 0
-20 -24 0
-20 -25 0
-20 -26 0
-20 -27 0
-21 -22 0
-21 -23 0
-21 -24 0
-21 -25 0
-21 -26 0
-21 -27 0
-22 -23 0
-22 -24 0
-22 -25 0
-22 -26 0
-22 -27 0
-23 -24 0
-23 -25 0
-23 -26 0
-23 -27 0
-24 -25 0
-24 -26 0
-24 -27 0
-25 -26 0
-25 -27 0
-26 -27 0
-28 -29 0
-28 -30 0
-28 -31 0
-28 -32 0
-28 -33 0
-28 -34 0
-28 -35 0
-28 -36 0
-29 -30 0
-29 -31 0
-29 -32 0
-29 -33 0
-29 -34 0
-29 -35 0
-29 -36 0
-30 -31 0
-30 -32 0
-30 -33 0
-30 -34 0
-30 -35 0
-30 -36 0
-31 -32 0
-31 -33 0
-31 -34 0
-31 -35 0
-31 -36 0
-32 -33 0
-32 -34 0
-32 -35 0
-32 -36 0
-33 -34 0
-33 -35 0
-33 -36 0
-34 -35 0
-34 -36 0
-35 -36 0
-37 -38 0
-37 -39 0
-37 -40 0
-37 -41 0
-37 -42 0
-37 -43 0
-37 -44 0
-37 -45 0
-38 -39 0
-38 -40 0
-38 -41 0
-38 -42 0
-38 -43 0
-38 -44 0
-38 -45 0
-39 -40 0
-39 -41 0
-39 -42 0
-39 -43 0
-39 -44 0
-39 -45 0
-40 -41 0
-40 -42 0
-40 -43 0
-40 -44 0
-40 -45 0
-41 -42 0
-41 -43 0
-41 -44 0
-41 -45 0
-42 -43 0
-42 -44 0
-42 -45 0
-43 -44 0
-43 -45 0
-44 -45 0
-46 -47 0
-46 -48 0
-46 -49 0
-46 -50 0
-46 -51 0
-46 -52 0
-46 -53 0
-46 -54 0
-47 -48 0
-47 -49 0
-47 -50 0
-47 -51 0
-47 -52 0
-47 -53 0
-47 -54 0
-48 -49 0
-48 -50 0
-48 -51 0
-48 -52 0
-48 -53 0
-48 -54 0
-49 -50 0
-49 -51 0
-49 -52 0
-49 -53 0
-49 -54 0
-50 -51 0
-50 -52 0
-50 -53 0
-50 -54 0
-51 -52 0
-51 -53 0
-51 -54 0
-52 -53 0
-52 -54 0
-53 -54 0
-55 -56 0
-55 -57 0
-55 -58 0
-55 -59 0
-55 -60 0
-55 -61 0
-55 -62 0
-55 -63 0
-56 -57 0
-56 -58 0
-56 -59 0
-56 -60 0
-56 -61 0
-56 -62 0
-56 -63 0
-57 -58 0
-57 -59 0
-57 -60 0
-57 -61 0
-57 -62 0
-57 -63 0
-58 -59 0
-58 -60 0
-58 -61 0
-58 -62 0
-58 -63 0
-59 -60 0
-59 -61 0
-59 -62 0
-59 -63 0
-60 -61 0
-60 -62 0
-60 -63 0
-61 -62 0
-61 -63 0
-62 -63 0
-64 -65 0
-64 -66 0
-64 -67 0
-64 -68 0
-64 -69 0
-64 -70 0
-64 -71 0
-64 -72 0
-65 -66 0
-65 -67 0
-65 -68 0
-65 -69 0
-65 -70 0
-65 -71 0
-65 -72 0
-66 -67 0
-66 -68 0
-66 -69 0
-66 -70 0
-66 -71 0
-66 -72 0
-67 -68 0
-67 -69 0
-67 -70 0
-67 -71 0
-67 -72 0
-68 -69 0
-68 -70 0
-68 -71 0
-68 -72 0
-69 -70 0
-69 -71 0
-69 -72 0
-70 -71 0
-70 -72 0
-71 -72 0
-73 -74 0
-73 -75 0
-73 -76 0
-73 -77 0
-73 -78 0
-73 -79 0
-73 -80 0
-73 -81 0
-74 -75 0
-74 -76 0
-74 -77 0
-74 -78 0
-74 -79 0
-74 -80 0
-74 -81 0
-75 -76 0
-75 -77 0
-75 -78 0
-75 -79 0
-75 -80 0
-75 -81 0
-76 -77 0
-76 -78 0
-76 -79 0
-76 -80 0
-76 -81 0
-77 -78 0
-77 -79 0
-77 -80 0
-77 -81 0
-78 -79 0
-78 -80 0
-78 -81 0
-79 -80 0
-79 -81 0
-80 -81 0
-82 -83 0
-82 -84 0
-82 -85 0
-82 -86 0
-82 -87 0
-82 -88 0
-82 -89 0
-82 -90 0
-83 -84 0
-83 -85 0
-83 -86 0
-83 -87 0
-83 -88 0
-83 -89 0
-83 -90 0
-84 -85 0
-84 -86 0
-84 -87 0
-84 -88 0
-84 -89 0
-84 -90 0
-85 -86 0
-85 -87 0
-85 -88 0
-85 -89 0
-85 -90 0
-86 -87 0
-86 -88 0
-86 -89 0
-86 -90 0
-87 -88 0
-87 -89 0
-87 -90 0
-88 -89 0
-88 -90 0
-89 -90 0
-1 10 11 12 13 14 15 16 17 18 0
-2 10 11 12 13 14 15 16 17 18 0
-3 10 11 12 13 14 15 16 17 18 0
-4 10 11 12 13 14 15 16 17 18 0
-5 10 11 12 13 14 15 16 17 18 0
-6 10 11 12 13 14 15 16 17 18 0
-7 10 11 12 13 14 15 16 17 18 0
-8 10 11 12 13 14 15 16 17 18 0
-9 10 11 12 13 14 15 16 17 18 0
-1 19 20 21 22 23 24 25 26 27 0
-2 19 20 21 22 23 24 25 26 27 0
-3 19 20 21 22 23 24 25 26 27 0
-4 19 20 21 22 23 24 25 26 27 0
-5 19 20 21 22 23 24 25 26 27 0
-6 19 20 21 22 23 24 25 26 27 0
-7 19 20 21 22 23 24 25 26 27 0
-8 19 20 21 22 23 24 25 26 27 0
-9 19 20 21 22 23 24 25 26 27 0
-1 29 30 31 32 33 34 35 36 0
-2 28 30 31 32 33 34 35 36 0
-3 28 29 31 32 33 34 35 36 0
-4 28 29 30 32 33 34 35 36 0
-5 28 29 30 31 33 34 35 36 0
-6 28 29 30 31 32 34 35 36 0
-7 28 29 30 31 32 33 35 36 0
-8 28 29 30 31 32 33 34 36 0
-9 28 29 30 31 32 33 34 35 0
-1 37 38 39 40 41 42 43 44 45 0
-2 37 38 39 40 41 42 43 44 45 0
-3 37 38 39 40 41 42 43 44 45 0
-4 37 38 39 40 41 42 43 44 45 0
-5 37 38 39 40 41 42 43 44 45 0
-6 37 38 39 40 41 42 43 44 45 0
-7 37 38 39 40 41 42 43 44 45 0
-8 37 38 39 40 41 42 43 44 45 0
-9 37 38 39 40 41 42 43 44 45 0
-1 46 47 48 49 50 51 52 53 54 0
-2 46 47 48 49 50 51 52 53 54 0
-3 46 47 48 49 50 51 52 53 54 0
-4 46 47 48 49 50 51 52 53 54 0
-5 46 47 48 49 50 51 52 53 54 0
-6 46 47 48 49 50 51 52 53 54 0
-7 46 47 48 49 50 51 52 53 54 0
-8 46 47 48 49 50 51 52 53 54 0
-9 46 47 48 49 50 51 52 53 54 0
-1 56 57 58 59 60 61 62 63 0
-2 55 57 58 59 60 61 62 63 0
-3 55 56 58 59 60 61 62 63 0
-4 55 56 57 59 60 61 62 63 0
-5 55 56 57 58 60 61 62 63 0
-6 55 56 57 58 59 61 62 63 0
-7 55 56 57 58 59 60 62 63 0
-8 55 56 57 58 59 60 61 63 0
-9 55 56 57 58 59 60 61 62 0
-1 64 65 66 67 68 69 70 71 72 0
-2 64 65 66 67 68 69 70 71 72 0
-3 64 65 66 67 68 69 70 71 72 0
-4 64 65 66 67 68 69 70 71 72 0
-5 64 65 66 67 68 69 70 71 72 0
-6 64 65 66 67 68 69 70 71 72 0
-7 64 65 66 67 68 69 70 71 72 0
-8 64 65 66 67 68 69 70 71 72 0
-9 64 65 66 67 68 69 70 71 72 0
-1 74 75 76 77 78 79 80 81 0
-2 73 75 76 77 78 79 80 81 0
-3 73 74 76 77 78 79 80 81 0
-4 73 74 75 77 78 79 80 81 0
-5 73 74 75 76 78 79 80 81 0
-6 73 74 75 76 77 79 80 81 0
-7 73 74 75 76 77 78 80 81 0
-8 73 74 75 76 77 78 79 81 0
-9 73 74 75 76 77 78 79 80 0
-1 83 84 85 86 87 88 89 90 0
-2 82 84 85 86 87 88 89 90 0
-3 82 83 85 86 87 88 89 90 0
-4 82 83 84 86 87 88 89 90 0
-5 82 83 84 85 87 88 89 90 0
-6 82 83 84 85 86 88 89 90 0
-7 82 83 84 85 86 87 89 90 0
-8 82 83 84 85 86 87 88 90 0
-9 82 83 84 85 86 87 88 89 0
-10 1 2 3 4 5 6 7 8 9 0
-11 1 2 3 4 5 6 7 8 9 0
-12 1 2 3 4 5 6 7 8 9 0
-13 1 2 3 4 5 6 7 8 9 0
-14 1 2 3 4 5 6 7 8 9 0
-15 1 2 3 4 5 6 7 8 9 0
-16 1 2 3 4 5 6 7 8 9 0
-17 1 2 3 4 5 6 7 8 9 0
-18 1 2 3 4 5 6 7 8 9 0
-10 19 20 21 22 23 24 25 26 27 0
-11 19 20 21 22 23 24 25 26 27 0
-12 19 20 21 22 23 24 25 26 27 0
-13 19 20 21 22 23 24 25 26 27 0
-14 19 20 21 22 23 24 25 26 27 0
-15 19 20 21 22 23 24 25 26 27 0
-16 19 20 21 22 23 24 25 26 27 0
-17 19 20 21 22 23 24 25 26 27 0
-18 19 20 21 22 23 24 25 26 27 0
-10 28 29 30 31 32 33 34 35 36 0
-11 28 29 30 31 32 33 34 35 36 0
-12 28 29 30 31 32 33 34 35 36 0
-13 28 29 30 31 32 33 34 35 36 0
-14 28 29 30 31 32 33 34 35 36 0
-15 28 29 30 31 32 33 34 35 36 0
-16 28 29 30 31 32 33 34 35 36 0
-17 28 29 30 31 32 33 34 35 36 0
-18 28 29 30 31 32 33 34 35 36 0
-10 37 38 39 40 41 42 43 44 45 0
-11 37 38 39 40 41 42 43 44 45 0
-12 37 38 39 40 41 42 43 44 45 0
-13 37 38 39 40 41 42 43 44 45 0
-14 37 38 39 40 41 42 43 44 45 0
-15 37 38 39 40 41 42 43 44 45 0
-16 37 38 39 40 41 42 43 44 45 0
-17 37 38 39 40 41 42 43 44 45 0
-18 37 38 39 40 41 42 43 44 45 0
-10 46 47 48 49 50 51 52 53 54 0
-11 46 47 48 49 50 51 52 53 54 0
-12 46 47 48 49 50 51 52 53 54 0
-13 46 47 48 49 50 51 52 53 54 0
-14 46 47 48 49 50 51 52 53 54 0
-15 46 47 48 49 50 51 52 53 54 0
-16 46 47 48 49 50 51 52 53 54 0
-17 46 47 48 49 50 51 52 53 54 0
-18 46 47 48 49 50 51 52 53 54 0
-10 55 56 57 58 59 60 61 62 63 0
-11 55 56 57 58 59 60 61 62 63 0
-12 55 56 57 58 59 60 61 62 63 0
-13 55 56 57 58 59 60 61 62 63 0
-14 55 56 57 58 59 60 61 62 63 0
-15 55 56 57 58 59 60 61 62 63 0
-16 55 56 57 58 59 60 61 62 63 0
-17 55 56 57 58 59 60 61 62 63 0
-18 55 56 57 58 59 60 61 62 63 0
-10 64 65 66 67 68 69 70 71 72 0
-11 64 65 66 67 68 69 70 71 72 0
-12 64 65 66 67 68 69 70 71 72 0
-13 64 65 66 67 68 69 70 71 72 0
-14 64 65 66 67 68 69 70 71 72 0
-15 64 65 66 67 68 69 70 71 72 0
-16 64 65 66 67 68 69 70 71 72 0
-17 64 65 66 67 68 69 70 71 72 0
-18 64 65 66 67 68 69 70 71 72 0
-10 73 74 75 76 77 78 79 80 81 0
-11 73 74 75 76 77 78 79 80 81 0
-12 73 74 75 76 77 78 79 80 81 0
-13 73 74 75 76 77 78 79 80 81 0
-14 73 74 75 76 77 78 79 80 81 0
-15 73 74 75 76 77 78 79 80 81 0
-16 73 74 75 76 77 78 79 80 81 0
-17 73 74 75 76 77 78 79 80 81 0
-18 73 74 75 76 77 78 79 80 81 0
-10 83 84 85 86 87 88 89 90 0
-11 82 84 85 86 87 88 89 90 0
-12 82 83 85 86 87 88 89 90 0
-13 82 83 84 86 87 88 89 90 0
-14 82 83 84 85 87 88 89 90 0
-15 82 83 84 85 86 88 89 90 0
-16 82 83 84 85 86 87 89 90 0
-17 82 83 84 85 86 87 88 90 0
-18 82 83 84 85 86 87 88 89 0
-19 1 2 3 4 5 6 7 8 9 0
-20 1 2 3 4 5 6 7 8 9 0
-21 1 2 3 4 5 6 7 8 9 0
-22 1 2 3 4 5 6 7 8 9 0
-23 1 2 3 4 5 6 7 8 9 0
-24 1 2 3 4 5 6 7 8 9 0
-25 1 2 3 4 5 6 7 8 9 0
-26 1 2 3 4 5 6 7 8 9 0
-27 1 2 3 4 5 6 7 8 9 0
-19 10 11 12 13 14 15 16 17 18 0
-20 10 11 12 13 14 15 16 17 18 0
-21 10 11 12 13 14 15 16 17 18 0
-22 10 11 12 13 14 15 16 17 18 0
-23 10 11 12 13 14 15 16 17 18 0
-24 10 11 12 13 14 15 16 17 18 0
-25 10 11 12 13 14 15 16 17 18 0
-26 10 11 12 13 14 15 16 17 18 0
-27 10 11 12 13 14 15 16 17 18 0
-19 29 30 31 32 33 34 35 36 0
-20 28 30 31 32 33 34 35 36 0
-21 28 29 31 32 33 34 35 36 0
-22 28 29 30 32 33 34 35 36 0
-23 28 29 30 31 33 34 35 36 0
-24 28 29 30 31 32 34 35 36 0
-25 28 29 30 31 32 33 35 36 0
-26 28 29 30 31 32 33 34 36 0
-27 28 29 30 31 32 33 34 35 0
-19 38 39 40 41 42 43 44 45 0
-20 37 39 40 41 42 43 44 45 0
-21 37 38 40 41 42 43 44 45 0
-22 37 38 39 41 42 43 44 45 0
-23 37 38 39 40 42 43 44 45 0
-24 37 38 39 40 41 43 44 45 0
-25 37 38 39 40 41 42 44 45 0
-26 37 38 39 40 41 42 43 45 0
-27 37 38 39 40 41 42 43 44 0
-19 46 47 48 49 50 51 52 53 54 0
-20 46 47 48 49 50 51 52 53 54 0
-21 46 47 48 49 50 51 52 53 54 0
-22 46 47 48 49 50 51 52 53 54 0
-23 46 47 48 49 50 51 52 53 54 0
-24 46 47 48 49 50 51 52 53 54 0
-25 46 47 48 49 50 51 52 53 54 0
-26 46 47 48 49 50 51 52 53 54 0
-27 46 47 48 49 50 51 52 53 54 0
-19 55 56 57 58 59 60 61 62 63 0
-20 55 56 57 58 59 60 61 62 63 0
-21 55 56 57 58 59 60 61 62 63 0
-22 55 56 57 58 59 60 61 62 63 0
-23 55 56 57 58 59 60 61 62 63 0
-24 55 56 57 58 59 60 61 62 63 0
-25 55 56 57 58 59 60 61 62 63 0
-26 55 56 57 58 59 60 61 62 63 0
-27 55 56 57 58 59 60 61 62 63 0
-19 65 66 67 68 69 70 71 72 0
-20 64 66 67 68 69 70 71 72 0
-21 64 65 67 68 69 70 71 72 0
-22 64 65 66 68 69 70 71 72 0
-23 64 65 66 67 69 70 71 72 0
-24 64 65 66 67 68 70 71 72 0
-25 64 65 66 67 68 69 71 72 0
-26 64 65 66 67 68 69 70 72 0
-27 64 65 66 67 68 69 70 71 0
-19 73 74 75 76 77 78 79 80 81 0
-20 73 74 75 76 77 78 79 80 81 0
-21 73 74 75 76 77 78 79 80 81 0
-22 73 74 75 76 77 78 79 80 81 0
-23 73 74 75 76 77 78 79 80 81 0
-24 73 74 75 76 77 78 79 80 81 0
-25 73 74 75 76 77 78 79 80 81 0
-26 73 74 75 76 77 78 79 80 81 0
-27 73 74 75 76 77 78 79 80 81 0
-19 83 84 85 86 87 88 89 90 0
-20 82 84 85 86 87 88 89 90 0
-21 82 83 85 86 87 88 89 90 0
-22 82 83 84 86 87 88 89 90 0
-23 82 83 84 85 87 88 89 90 0
-24 82 83 84 85 86 88 89 90 0
-25 82 83 84 85 86 87 89 90 0
-26 82 83 84 85 86 87 88 90 0
-27 82 83 84 85 86 87 88 89 0
-28 2 3 4 5 6 7 8 9 0
-29 1 3 4 5 6 7 8 9 0
-30 1 2 4 5 6 7 8 9 0
-31 1 2 3 5 6 7 8 9 0
-32 1 2 3 4 6 7 8 9 0
-33 1 2 3 4 5 7 8 9 0
-34 1 2 3 4 5 6 8 9 0
-35 1 2 3 4 5 6 7 9 0
-36 1 2 3 4 5 6 7 8 0
-28 10 11 12 13 14 15 16 17 18 0
-29 10 11 12 13 14 15 16 17 18 0
-30 10 11 12 13 14 15 16 17 18 0
-31 10 11 12 13 14 15 16 17 18 0
-32 10 11 12 13 14 15 16 17 18 0
-33 10 11 12 13 14 15 16 17 18 0
-34 10 11 12 13 14 15 16 17 18 0
-35 10 11 12 13 14 15 16 17 18 0
-36 10 11 12 13 14 15 16 17 18 0
-28 20 21 22 23 24 25 26 27 0
-29 19 21 22 23 24 25 26 27 0
-30 19 20 22 23 24 25 26 27 0
-31 19 20 21 23 24 25 26 27 0
-32 19 20 21 22 24 25 26 27 0
-33 19 20 21 22 23 25 26 27 0
-34 19 20 21 22 23 24 26 27 0
-35 19 20 21 22 23 24 25 27 0
-36 19 20 21 22 23 24 25 26 0
-28 37 38 39 40 41 42 43 44 45 0
-29 37 38 39 40 41 42 43 44 45 0
-30 37 38 39 40 41 42 43 44 45 0
-31 37 38 39 40 41 42 43 44 45 0
-32 37 38 39 40 41 42 43 44 45 0
-33 37 38 39 40 41 42 43 44 45 0
-34 37 38 39 40 41 42 43 44 45 0
-35 37 38 39 40 41 42 43 44 45 0
-36 37 38 39 40 41 42 43 44 45 0
-28 47 48 49 50 51 52 53 54 0
-29 46 48 49 50 51 52 53 54 0
-30 46 47 49 50 51 52 53 54 0
-31 46 47 48 50 51 52 53 54 0
-32 46 47 48 49 51 52 53 54 0
-33 46 47 48 49 50 52 53 54 0
-34 46 47 48 49 50 51 53 54 0
-35 46 47 48 49 50 51 52 54 0
-36 46 47 48 49 50 51 52 53 0
-28 55 56 57 58 59 60 61 62 63 0
-29 55 56 57 58 59 60 61 62 63 0
-30 55 56 57 58 59 60 61 62 63 0
-31 55 56 57 58 59 60 61 62 63 0
-32 55 56 57 58 59 60 61 62 63 0
-33 55 56 57 58 59 60 61 62 63 0
-34 55 56 57 58 59 60 61 62 63 0
-35 55 56 57 58 59 60 61 62 63 0
-36 55 56 57 58 59 60 61 62 63 0
-28 64 65 66 67 68 69 70 71 72 0
-29 64 65 66 67 68 69 70 71 72 0
-30 64 65 66 67 68 69 70 71 72 0
-31 64 65 66 67 68 69 70 71 72 0
-32 64 65 66 67 68 69 70 71 72 0
-33 64 65 66 67 68 69 70 71 72 0
-34 64 65 66 67 68 69 70 71 72 0
-35 64 65 66 67 68 69 70 71 72 0
-36 64 65 66 67 68 69 70 71 72 0
-28 74 75 76 77 78 79 80 81 0
-29 73 75 76 77 78 79 80 81 0
-30 73 74 76 77 78 79 80 81 0
-31 73 74 75 77 78 79 80 81 0
-32 73 74 75 76 78 79 80 81 0
-33 73 74 75 76 77 79 80 81 0
-34 73 74 75 76 77 78 80 81 0
-35 73 74 75 76 77 78 79 81 0
-36 73 74 75 76 77 78 79 80 0
-28 83 84 85 86 87 88 89 90 0
-29 82 84 85 86 87 88 89 90 0
-30 82 83 85 86 87 88 89 90 0
-31 82 83 84 86 87 88 89 90 0
-32 82 83 84 85 87 88 89 90 0
-33 82 83 84 85 86 88 89 90 0
-34 82 83 84 85 86 87 89 90 0
-35 82 83 84 85 86 87 88 90 0
-36 82 83 84 85 86 87 88 89 0
-37 1 2 3 4 5 6 7 8 9 0
-38 1 2 3 4 5 6 7 8 9 0
-39 1 2 3 4 5 6 7 8 9 0
-40 1 2 3 4 5 6 7 8 9 0
-41 1 2 3 4 5 6 7 8 9 0
-42 1 2 3 4 5 6 7 8 9 0
-43 1 2 3 4 5 6 7 8 9 0
-44 1 2 3 4 5 6 7 8 9 0
-45 1 2 3 4 5 6 7 8 9 0
-37 10 11 12 13 14 15 16 17 18 0
-38 10 11 12 13 14 15 16 17 18 0
-39 10 11 12 13 14 15 16 17 18 0
-40 10 11 12 13 14 15 16 17 18 0
-41 10 11 12 13 14 15 16 17 18 0
-42 10 11 12 13 14 15 16 17 18 0
-43 10 11 12 13 14 15 16 17 18 0
-44 10 11 12 13 14 15 16 17 18 0
-45 10 11 12 13 14 15 16 17 18 0
-37 20 21 22 23 24 25 26 27 0
-38 19 21 22 23 24 25 26 27 0
-39 19 20 22 23 24 25 26 27 0
-40 19 20 21 23 24 25 26 27 0
-41 19 20 21 22 24 25 26 27 0
-42 19 20 21 22 23 25 26 27 0
-43 19 20 21 22 23 24 26 27 0
-44 19 20 21 22 23 24 25 27 0
-45 19 20 21 22 23 24 25 26 0
-37 28 29 30 31 32 33 34 35 36 0
-38 28 29 30 31 32 33 34 35 36 0
-39 28 29 30 31 32 33 34 35 36 0
-40 28 29 30 31 32 33 34 35 36 0
-41 28 29 30 31 32 33 34 35 36 0
-42 28 29 30 31 32 33 34 35 36 0
-43 28 29 30 31 32 33 34 35 36 0
-44 28 29 30 31 32 33 34 35 36 0
-45 28 29 30 31 32 33 34 35 36 0
-37 46 47 48 49 50 51 52 53 54 0
-38 46 47 48 49 50 51 52 53 54 0
-39 46 47 48 49 50 51 52 53 54 0
-40 46 47 48 49 50 51 52 53 54 0
-41 46 47 48 49 50 51 52 53 54 0
-42 46 47 48 49 50 51 52 53 54 0
-43 46 47 48 49 50 51 52 53 54 0
-44 46 47 48 49 50 51 52 53 54 0
-45 46 47 48 49 50 51 52 53 54 0
-37 56 57 58 59 60 61 62 63 0
-38 55 57 58 59 60 61 62 63 0
-39 55 56 58 59 60 61 62 63 0
-40 55 56 57 59 60 61 62 63 0
-41 55 56 57 58 60 61 62 63 0
-42 55 56 57 58 59 61 62 63 0
-43 55 56 57 58 59 60 62 63 0
-44 55 56 57 58 59 60 61 63 0
-45 55 56 57 58 59 60 61 62 0
-37 65 66 67 68 69 70 71 72 0
-38 64 66 67 68 69 70 71 72 0
-39 64 65 67 68 69 70 71 72 0
-40 64 65 66 68 69 70 71 72 0
-41 64 65 66 67 69 70 71 72 0
-42 64 65 66 67 68 70 71 72 0
-43 64 65 66 67 68 69 71 72 0
-44 64 65 66 67 68 69 70 72 0
-45 64 65 66 67 68 69 70 71 0
-37 74 75 76 77 78 79 80 81 0
-38 73 75 76 77 78 79 80 81 0
-39 73 74 76 77 78 79 80 81 0
-40 73 74 75 77 78 79 80 81 0
-41 73 74 75 76 78 79 80 81 0
-42 73 74 75 76 77 79 80 81 0
-43 73 74 75 76 77 78 80 81 0
-44 73 74 75 76 77 78 79 81 0
-45 73 74 75 76 77 78 79 80 0
-37 83 84 85 86 87 88 89 90 0
-38 82 84 85 86 87 88 89 90 0
-39 82 83 85 86 87 88 89 90 0
-40 82 83 84 86 87 88 89 90 0
-41 82 83 84 85 87 88 89 90 0
-42 82 83 84 85 86 88 89 90 0
-43 82 83 84 85 86 87 89 90 0
-44 82 83 84 85 86 87 88 90 0
-45 82 83 84 85 86 87 88 89 0
-46 1 2 3 4 5 6 7 8 9 0
-47 1 2 3 4 5 6 7 8 9 0
-48 1 2 3 4 5 6 7 8 9 0
-49 1 2 3 4 5 6 7 8 9 0
-50 1 2 3 4 5 6 7 8 9 0
-51 1 2 3 4 5 6 7 8 9 0
-52 1 2 3 4 5 6 7 8 9 0
-53 1 2 3 4 5 6 7 8 9 0
-54 1 2 3 4 5 6 7 8 9 0
-46 10 11 12 13 14 15 16 17 18 0
-47 10 11 12 13 14 15 16 17 18 0
-48 10 11 12 13 14 15 16 17 18 0
-49 10 11 12 13 14 15 16 17 18 0
-50 10 11 12 13 14 15 16 17 18 0
-51 10 11 12 13 14 15 16 17 18 0
-52 10 11 12 13 14 15 16 17 18 0
-53 10 11 12 13 14 15 16 17 18 0
-54 10 11 12 13 14 15 16 17 18 0
-46 19 20 21 22 23 24 25 26 27 0
-47 19 20 21 22 23 24 25 26 27 0
-48 19 20 21 22 23 24 25 26 27 0
-49 19 20 21 22 23 24 25 26 27 0
-50 19 20 21 22 23 24 25 26 27 0
-51 19 20 21 22 23 24 25 26 27 0
-52 19 20 21 22 23 24 25 26 27 0
-53 19 20 21 22 23 24 25 26 27 0
-54 19 20 21 22 23 24 25 26 27 0
-46 29 30 31 32 33 34 35 36 0
-47 28 30 31 32 33 34 35 36 0
-48 28 29 31 32 33 34 35 36 0
-49 28 29 30 32 33 34 35 36 0
-50 28 29 30 31 33 34 35 36 0
-51 28 29 30 31 32 34 35 36 0
-52 28 29 30 31 32 33 35 36 0
-53 28 29 30 31 32 33 34 36 0
-54 28 29 30 31 32 33 34 35 0
-46 37 38 39 40 41 42 43 44 45 0
-47 37 38 39 40 41 42 43 44 45 0
-48 37 38 39 40 41 42 43 44 45 0
-49 37 38 39 40 41 42 43 44 45 0
-50 37 38 39 40 41 42 43 44 45 0
-51 37 38 39 40 41 42 43 44 45 0
-52 37 38 39 40 41 42 43 44 45 0
-53 37 38 39 40 41 42 43 44 45 0
-54 37 38 39 40 41 42 43 44 45 0
-46 56 57 58 59 60 61 62 63 0
-47 55 57 58 59 60 61 62 63 0
-48 55 56 58 59 60 61 62 63 0
-49 55 56 57 59 60 61 62 63 0
-50 55 56 57 58 60 61 62 63 0
-51 55 56 57 58 59 61 62 63 0
-52 55 56 57 58 59 60 62 63 0
-53 55 56 57 58 59 60 61 63 0
-54 55 56 57 58 59 60 61 62 0
-46 65 66 67 68 69 70 71 72 0
-47 64 66 67 68 69 70 71 72 0
-48 64 65 67 68 69 70 71 72 0
-49 64 65 66 68 69 70 71 72 0
-50 64 65 66 67 69 70 71 72 0
-51 64 65 66 67 68 70 71 72 0
-52 64 65 66 67 68 69 71 72 0
-53 64 65 66 67 68 69 70 72 0
-54 64 65 66 67 68 69 70 71 0
-46 73 74 75 76 77 78 79 80 81 0
-47 73 74 75 76 77 78 79 80 81 0
-48 73 74 75 76 77 78 79 80 81 0
-49 73 74 75 76 77 78 79 80 81 0
-50 73 74 75 76 77 78 79 80 81 0
-51 73 74 75 76 77 78 79 80 81 0
-52 73 74 75 76 77 78 79 80 81 0
-53 73 74 75 76 77 78 79 80 81 0
-54 73 74 75 76 77 78 79 80 81 0
-46 83 84 85 86 87 88 89 90 0
-47 82 84 85 86 87 88 89 90 0
-48 82 83 85 86 87 88 89 90 0
-49 82 83 84 86 87 88 89 90 0
-50 82 83 84 85 87 88 89 90 0
-51 82 83 84 85 86 88 89 90 0
-52 82 83 84 85 86 87 89 90 0
-53 82 83 84 85 86 87 88 90 0
-54 82 83 84 85 86 87 88 89 0
-55 2 3 4 5 6 7 8 9 0
-56 1 3 4 5 6 7 8 9 0
-57 1 2 4 5 6 7 8 9 0
-58 1 2 3 5 6 7 8 9 0
-59 1 2 3 4 6 7 8 9 0
-60 1 2 3 4 5 7 8 9 0
-61 1 2 3 4 5 6 8 9 0
-62 1 2 3 4 5 6 7 9 0
-63 1 2 3 4 5 6 7 8 0
-55 10 11 12 13 14 15 16 17 18 0
-56 10 11 12 13 14 15 16 17 18 0
-57 10 11 12 13 14 15 16 17 18 0
-58 10 11 12 13 14 15 16 17 18 0
-59 10 11 12 13 14 15 16 17 18 0
-60 10 11 12 13 14 15 16 17 18 0
-61 10 11 12 13 14 15 16 17 18 0
-62 10 11 12 13 14 15 16 17 18 0
-63 10 11 12 13 14 15 16 17 18 0
-55 19 20 21 22 23 24 25 26 27 0
-56 19 20 21 22 23 24 25 26 27 0
-57 19 20 21 22 23 24 25 26 27 0
-58 19 20 21 22 23 24 25 26 27 0
-59 19 20 21 22 23 24 25 26 27 0
-60 19 20 21 22 23 24 25 26 27 0
-61 19 20 21 22 23 24 25 26 27 0
-62 19 20 21 22 23 24 25 26 27 0
-63 19 20 21 22 23 24 25 26 27 0
-55 28 29 30 31 32 33 34 35 36 0
-56 28 29 30 31 32 33 34 35 36 0
-57 28 29 30 31 32 33 34 35 36 0
-58 28 29 30 31 32 33 34 35 36 0
-59 28 29 30 31 32 33 34 35 36 0
-60 28 29 30 31 32 33 34 35 36 0
-61 28 29 30 31 32 33 34 35 36 0
-62 28 29 30 31 32 33 34 35 36 0
-63 28 29 30 31 32 33 34 35 36 0
-55 38 39 40 41 42 43 44 45 0
-56 37 39 40 41 42 43 44 45 0
-57 37 38 40 41 42 43 44 45 0
-58 37 38 39 41 42 43 44 45 0
-59 37 38 39 40 42 43 44 45 0
-60 37 38 39 40 41 43 44 45 0
-61 37 38 39 40 41 42 44 45 0
-62 37 38 39 40 41 42 43 45 0
-63 37 38 39 40 41 42 43 44 0
-55 47 48 49 50 51 52 53 54 0
-56 46 48 49 50 51 52 53 54 0
-57 46 47 49 50 51 52 53 54 0
-58 46 47 48 50 51 52 53 54 0
-59 46 47 48 49 51 52 53 54 0
-60 46 47 48 49 50 52 53 54 0
-61 46 47 48 49 50 51 53 54 0
-62 46 47 48 49 50 51 52 54 0
-63 46 47 48 49 50 51 52 53 0
-55 64 65 66 67 68 69 70 71 72 0
-56 64 65 66 67 68 69 70 71 72 0
-57 64 65 66 67 68 69 70 71 72 0
-58 64 65 66 67 68 69 70 71 72 0
-59 64 65 66 67 68 69 70 71 72 0
-60 64 65 66 67 68 69 70 71 72 0
-61 64 65 66 67 68 69 70 71 72 0
-62 64 65 66 67 68 69 70 71 72 0
-63 64 65 66 67 68 69 70 71 72 0
-55 74 75 76 77 78 79 80 81 0
-56 73 75 76 77 78 79 80 81 0
-57 73 74 76 77 78 79 80 81 0
-58 73 74 75 77 78 79 80 81 0
-59 73 74 75 76 78 79 80 81 0
-60 73 74 75 76 77 79 80 81 0
-61 73 74 75 76 77 78 80 81 0
-62 73 74 75 76 77 78 79 81 0
-63 73 74 75 76 77 78 79 80 0
-55 82 83 84 85 86 87 88 89 90 0
-56 82 83 84 85 86 87 88 89 90 0
-57 82 83 84 85 86 87 88 89 90 0
-58 82 83 84 85 86 87 88 89 90 0
-59 82 83 84 85 86 87 88 89 90 0
-60 82 83 84 85 86 87 88 89 90 0
-61 82 83 84 85 86 87 88 89 90 0
-62 82 83 84 85 86 87 88 89 90 0
-63 82 83 84 85 86 87 88 89 90 0
-64 1 2 3 4 5 6 7 8 9 0
-65 1 2 3 4 5 6 7 8 9 0
-66 1 2 3 4 5 6 7 8 9 0
-67 1 2 3 4 5 6 7 8 9 0
-68 1 2 3 4 5 6 7 8 9 0
-69 1 2 3 4 5 6 7 8 9 0
-70 1 2 3 4 5 6 7 8 9 0
-71 1 2 3 4 5 6 7 8 9 0
-72 1 2 3 4 5 6 7 8 9 0
-64 10 11 12 13 14 15 16 17 18 0
-65 10 11 12 13 14 15 16 17 18 0
-66 10 11 12 13 14 15 16 17 18 0
-67 10 11 12 13 14 15 16 17 18 0
-68 10 11 12 13 14 15 16 17 18 0
-69 10 11 12 13 14 15 16 17 18 0
-70 10 11 12 13 14 15 16 17 18 0
-71 10 11 12 13 14 15 16 17 18 0
-72 10 11 12 13 14 15 16 17 18 0
-64 20 21 22 23 24 25 26 27 0
-65 19 21 22 23 24 25 26 27 0
-66 19 20 22 23 24 25 26 27 0
-67 19 20 21 23 24 25 26 27 0
-68 19 20 21 22 24 25 26 27 0
-69 19 20 21 22 23 25 26 27 0
-70 19 20 21 22 23 24 26 27 0
-71 19 20 21 22 23 24 25 27 0
-72 19 20 21 22 23 24 25 26 0
-64 28 29 30 31 32 33 34 35 36 0
-65 28 29 30 31 32 33 34 35 36 0
-66 28 29 30 31 32 33 34 35 36 0
-67 28 29 30 31 32 33 34 35 36 0
-68 28 29 30 31 32 33 34 35 36 0
-69 28 29 30 31 32 33 34 35 36 0
-70 28 29 30 31 32 33 34 35 36 0
-71 28 29 30 31 32 33 34 35 36 0
-72 28 29 30 31 32 33 34 35 36 0
-64 38 39 40 41 42 43 44 45 0
-65 37 39 40 41 42 43 44 45 0
-66 37 38 40 41 42 43 44 45 0
-67 37 38 39 41 42 43 44 45 0
-68 37 38 39 40 42 43 44 45 0
-69 37 38 39 40 41 43 44 45 0
-70 37 38 39 40 41 42 44 45 0
-71 37 38 39 40 41 42 43 45 0
-72 37 38 39 40 41 42 43 44 0
-64 47 48 49 50 51 52 53 54 0
-65 46 48 49 50 51 52 53 54 0
-66 46 47 49 50 51 52 53 54 0
-67 46 47 48 50 51 52 53 54 0
-68 46 47 48 49 51 52 53 54 0
-69 46 47 48 49 50 52 53 54 0
-70 46 47 48 49 50 51 53 54 0
-71 46 47 48 49 50 51 52 54 0
-72 46 47 48 49 50 51 52 53 0
-64 55 56 57 58 59 60 61 62 63 0
-65 55 56 57 58 59 60 61 62 63 0
-66 55 56 57 58 59 60 61 62 63 0
-67 55 56 57 58 59 60 61 62 63 0
-68 55 56 57 58 59 60 61 62 63 0
-69 55 56 57 58 59 60 61 62 63 0
-70 55 56 57 58 59 60 61 62 63 0
-71 55 56 57 58 59 60 61 62 63 0
-72 55 56 57 58 59 60 61 62 63 0
-64 73 74 75 76 77 78 79 80 81 0
-65 73 74 75 76 77 78 79 80 81 0
-66 73 74 75 76 77 78 79 80 81 0
-67 73 74 75 76 77 78 79 80 81 0
-68 73 74 75 76 77 78 79 80 81 0
-69 73 74 75 76 77 78 79 80 81 0
-70 73 74 75 76 77 78 79 80 81 0
-71 73 74 75 76 77 78 79 80 81 0
-72 73 74 75 76 77 78 79 80 81 0
-64 83 84 85 86 87 88 89 90 0
-65 82 84 85 86 87 88 89 90 0
-66 82 83 85 86 87 88 89 90 0
-67 82 83 84 86 87 88 89 90 0
-68 82 83 84 85 87 88 89 90 0
-69 82 83 84 85 86 88 89 90 0
-70 82 83 84 85 86 87 89 90 0
-71 82 83 84 85 86 87 88 90 0
-72 82 83 84 85 86 87 88 89 0
-73 2 3 4 5 6 7 8 9 0
-74 1 3 4 5 6 7 8 9 0
-75 1 2 4 5 6 7 8 9 0
-76 1 2 3 5 6 7 8 9 0
-77 1 2 3 4 6 7 8 9 0
-78 1 2 3 4 5 7 8 9 0
-79 1 2 3 4 5 6 8 9 0
-80 1 2 3 4 5 6 7 9 0
-81 1 2 3 4 5 6 7 8 0
-73 10 11 12 13 14 15 16 17 18 0
-74 10 11 12 13 14 15 16 17 18 0
-75 10 11 12 13 14 15 16 17 18 0
-76 10 11 12 13 14 15 16 17 18 0
-77 10 11 12 13 14 15 16 17 18 0
-78 10 11 12 13 14 15 16 17 18 0
-79 10 11 12 13 14 15 16 17 18 0
-80 10 11 12 13 14 15 16 17 18 0
-81 10 11 12 13 14 15 16 17 18 0
-73 19 20 21 22 23 24 25 26 27 0
-74 19 20 21 22 23 24 25 26 27 0
-75 19 20 21 22 23 24 25 26 27 0
-76 19 20 21 22 23 24 25 26 27 0
-77 19 20 21 22 23 24 25 26 27 0
-78 19 20 21 22 23 24 25 26 27 0
-79 19 20 21 22 23 24 25 26 27 0
-80 19 20 21 22 23 24 25 26 27 0
-81 19 20 21 22 23 24 25 26 27 0
-73 29 30 31 32 33 34 35 36 0
-74 28 30 31 32 33 34 35 36 0
-75 28 29 31 32 33 34 35 36 0
-76 28 29 30 32 33 34 35 36 0
-77 28 29 30 31 33 34 35 36 0
-78 28 29 30 31 32 34 35 36 0
-79 28 29 30 31 32 33 35 36 0
-80 28 29 30 31 32 33 34 36 0
-81 28 29 30 31 32 33 34 35 0
-73 38 39 40 41 42 43 44 45 0
-74 37 39 40 41 42 43 44 45 0
-75 37 38 40 41 42 43 44 45 0
-76 37 38 39 41 42 43 44 45 0
-77 37 38 39 40 42 43 44 45 0
-78 37 38 39 40 41 43 44 45 0
-79 37 38 39 40 41 42 44 45 0
-80 37 38 39 40 41 42 43 45 0
-81 37 38 39 40 41 42 43 44 0
-73 46 47 48 49 50 51 52 53 54 0
-74 46 47 48 49 50 51 52 53 54 0
-75 46 47 48 49 50 51 52 53 54 0
-76 46 47 48 49 50 51 52 53 54 0
-77 46 47 48 49 50 51 52 53 54 0
-78 46 47 48 49 50 51 52 53 54 0
-79 46 47 48 49 50 51 52 53 54 0
-80 46 47 48 49 50 51 52 53 54 0
-81 46 47 48 49 50 51 52 53 54 0
-73 56 57 58 59 60 61 62 63 0
-74 55 57 58 59 60 61 62 63 0
-75 55 56 58 59 60 61 62 63 0
-76 55 56 57 59 60 61 62 63 0
-77 55 56 57 58 60 61 62 63 0
-78 55 56 57 58 59 61 62 63 0
-79 55 56 57 58 59 60 62 63 0
-80 55 56 57 58 59 60 61 63 0
-81 55 56 57 58 59 60 61 62 0
-73 64 65 66 67 68 69 70 71 72 0
-74 64 65 66 67 68 69 70 71 72 0
-75 64 65 66 67 68 69 70 71 72 0
-76 64 65 66 67 68 69 70 71 72 0
-77 64 65 66 67 68 69 70 71 72 0
-78 64 65 66 67 68 69 70 71 72 0
-79 64 65 66 67 68 69 70 71 72 0
-80 64 65 66 67 68 69 70 71 72 0
-81 64 65 66 67 68 69 70 71 72 0
-73 83 84 85 86 87 88 89 90 0
-74 82 84 85 86 87 88 89 90 0
-75 82 83 85 86 87 88 89 90 0
-76 82 83 84 86 87 88 89 90 0
-77 82 83 84 85 87 88 89 90 0
-78 82 83 84 85 86 88 89 90 0
-79 82 83 84 85 86 87 89 90 0
-80 82 83 84 85 86 87 88 90 0
-81 82 83 84 85 86 87 88 89 0
-82 2 3 4 5 6 7 8 9 0
-83 1 3 4 5 6 7 8 9 0
-84 1 2 4 5 6 7 8 9 0
-85 1 2 3 5 6 7 8 9 0
-86 1 2 3 4 6 7 8 9 0
-87 1 2 3 4 5 7 8 9 0
-88 1 2 3 4 5 6 8 9 0
-89 1 2 3 4 5 6 7 9 0
-90 1 2 3 4 5 6 7 8 0
-82 11 12 13 14 15 16 17 18 0
-83 10 12 13 14 15 16 17 18 0
-84 10 11 13 14 15 16 17 18 0
-85 10 11 12 14 15 16 17 18 0
-86 10 11 12 13 15 16 17 18 0
-87 10 11 12 13 14 16 17 18 0
-88 10 11 12 13 14 15 17 18 0
-89 10 11 12 13 14 15 16 18 0
-90 10 11 12 13 14 15 16 17 0
-82 20 21 22 23 24 25 26 27 0
-83 19 21 22 23 24 25 26 27 0
-84 19 20 22 23 24 25 26 27 0
-85 19 20 21 23 24 25 26 27 0
-86 19 20 21 22 24 25 26 27 0
-87 19 20 21 22 23 25 26 27 0
-88 19 20 21 22 23 24 26 27 0
-89 19 20 21 22 23 24 25 27 0
-90 19 20 21 22 23 24 25 26 0
-82 29 30 31 32 33 34 35 36 0
-83 28 30 31 32 33 34 35 36 0
-84 28 29 31 32 33 34 35 36 0
-85 28 29 30 32 33 34 35 36 0
-86 28 29 30 31 33 34 35 36 0
-87 28 29 30 31 32 34 35 36 0
-88 28 29 30 31 32 33 35 36 0
-89 28 29 30 31 32 33 34 36 0
-90 28 29 30 31 32 33 34 35 0
-82 38 39 40 41 42 43 44 45 0
-83 37 39 40 41 42 43 44 45 0
-84 37 38 40 41 42 43 44 45 0
-85 37 38 39 41 42 43 44 45 0
-86 37 38 39 40 42 43 44 45 0
-87 37 38 39 40 41 43 44 45 0
-88 37 38 39 40 41 42 44 45 0
-89 37 38 39 40 41 42 43 45 0
-90 37 38 39 40 41 42 43 44 0
-82 47 48 49 50 51 52 53 54 0
-83 46 48 49 50 51 52 53 54 0
-84 46 47 49 50 51 52 53 54 0
-85 46 47 48 50 51 52 53 54 0
-86 46 47 48 49 51 52 53 54 0
-87 46 47 48 49 50 52 53 54 0
-88 46 47 48 49 50 51 53 54 0
-89 46 47 48 49 50 51 52 54 0
-90 46 47 48 49 50 51 52 53 0
-82 55 56 57 58 59 60 61 62 63 0
-83 55 56 57 58 59 60 61 62 63 0
-84 55 56 57 58 59 60 61 62 63 0
-85 55 56 57 58 59 60 61 62 63 0
-86 55 56 57 58 59 60 61 62 63 0
-87 55 56 57 58 59 60 61 62 63 0
-88 55 56 57 58 59 60 61 62 63 0
-89 55 56 57 58 59 60 61 62 63 0
-90 55 56 57 58 59 60 61 62 63 0
-82 65 66 67 68 69 70 71 72 0
-83 64 66 67 68 69 70 71 72 0
-84 64 65 67 68 69 70 71 72 0
-85 64 65 66 68 69 70 71 72 0
-86 64 65 66 67 69 70 71 72 0
-87 64 65 66 67 68 70 71 72 0
-88 64 65 66 67 68 69 71 72 0
-89 64 65 66 67 68 69 70 72 0
-90 64 65 66 67 68 69 70 71 0
-82 74 75 76 77 78 79 80 81 0
-83 73 75 76 77 78 79 80 81 0
-84 73 74 76 77 78 79 80 81 0
-85 73 74 75 77 78 79 80 81 0
-86 73 74 75 76 78 79 80 81 0
-87 73 74 75 76 77 79 80 81 0
-88 73 74 75 76 77 78 80 81 0
-89 73 74 75 76 77 78 79 81 0
-90 73 74 75 76 77 78 79 80 0
